c File: flat175_3_0.col
c
c SOURCE: Joseph Culberson (joe@cs.ualberta.ca)
c DESCRIPTION: Quasi-random coloring problem
c              generated with flatness = 0
c                             probability = 0.041
c                             known coloring = 3
c                             random seed = 1067
c              Creation Date:  Wed Feb 24 10:55:22 1999
c Maximum degree = 8 Minimum degree = 1
c COLOR VERIFICATION: Using the permuted order
c under simple greedy yields the specified
c coloring number
c Color = 3 specified partitions = 3
c p edge 175 417
c cnf created by edge2cnf
p cnf 525 1951
-1 -2 0
-1 -3 0
-2 -3 0
1 2 3 0
-4 -5 0
-4 -6 0
-5 -6 0
4 5 6 0
-7 -8 0
-7 -9 0
-8 -9 0
7 8 9 0
-10 -11 0
-10 -12 0
-11 -12 0
10 11 12 0
-13 -14 0
-13 -15 0
-14 -15 0
13 14 15 0
-16 -17 0
-16 -18 0
-17 -18 0
16 17 18 0
-19 -20 0
-19 -21 0
-20 -21 0
19 20 21 0
-22 -23 0
-22 -24 0
-23 -24 0
22 23 24 0
-25 -26 0
-25 -27 0
-26 -27 0
25 26 27 0
-28 -29 0
-28 -30 0
-29 -30 0
28 29 30 0
-31 -32 0
-31 -33 0
-32 -33 0
31 32 33 0
-34 -35 0
-34 -36 0
-35 -36 0
34 35 36 0
-37 -38 0
-37 -39 0
-38 -39 0
37 38 39 0
-40 -41 0
-40 -42 0
-41 -42 0
40 41 42 0
-43 -44 0
-43 -45 0
-44 -45 0
43 44 45 0
-46 -47 0
-46 -48 0
-47 -48 0
46 47 48 0
-49 -50 0
-49 -51 0
-50 -51 0
49 50 51 0
-52 -53 0
-52 -54 0
-53 -54 0
52 53 54 0
-55 -56 0
-55 -57 0
-56 -57 0
55 56 57 0
-58 -59 0
-58 -60 0
-59 -60 0
58 59 60 0
-61 -62 0
-61 -63 0
-62 -63 0
61 62 63 0
-64 -65 0
-64 -66 0
-65 -66 0
64 65 66 0
-67 -68 0
-67 -69 0
-68 -69 0
67 68 69 0
-70 -71 0
-70 -72 0
-71 -72 0
70 71 72 0
-73 -74 0
-73 -75 0
-74 -75 0
73 74 75 0
-76 -77 0
-76 -78 0
-77 -78 0
76 77 78 0
-79 -80 0
-79 -81 0
-80 -81 0
79 80 81 0
-82 -83 0
-82 -84 0
-83 -84 0
82 83 84 0
-85 -86 0
-85 -87 0
-86 -87 0
85 86 87 0
-88 -89 0
-88 -90 0
-89 -90 0
88 89 90 0
-91 -92 0
-91 -93 0
-92 -93 0
91 92 93 0
-94 -95 0
-94 -96 0
-95 -96 0
94 95 96 0
-97 -98 0
-97 -99 0
-98 -99 0
97 98 99 0
-100 -101 0
-100 -102 0
-101 -102 0
100 101 102 0
-103 -104 0
-103 -105 0
-104 -105 0
103 104 105 0
-106 -107 0
-106 -108 0
-107 -108 0
106 107 108 0
-109 -110 0
-109 -111 0
-110 -111 0
109 110 111 0
-112 -113 0
-112 -114 0
-113 -114 0
112 113 114 0
-115 -116 0
-115 -117 0
-116 -117 0
115 116 117 0
-118 -119 0
-118 -120 0
-119 -120 0
118 119 120 0
-121 -122 0
-121 -123 0
-122 -123 0
121 122 123 0
-124 -125 0
-124 -126 0
-125 -126 0
124 125 126 0
-127 -128 0
-127 -129 0
-128 -129 0
127 128 129 0
-130 -131 0
-130 -132 0
-131 -132 0
130 131 132 0
-133 -134 0
-133 -135 0
-134 -135 0
133 134 135 0
-136 -137 0
-136 -138 0
-137 -138 0
136 137 138 0
-139 -140 0
-139 -141 0
-140 -141 0
139 140 141 0
-142 -143 0
-142 -144 0
-143 -144 0
142 143 144 0
-145 -146 0
-145 -147 0
-146 -147 0
145 146 147 0
-148 -149 0
-148 -150 0
-149 -150 0
148 149 150 0
-151 -152 0
-151 -153 0
-152 -153 0
151 152 153 0
-154 -155 0
-154 -156 0
-155 -156 0
154 155 156 0
-157 -158 0
-157 -159 0
-158 -159 0
157 158 159 0
-160 -161 0
-160 -162 0
-161 -162 0
160 161 162 0
-163 -164 0
-163 -165 0
-164 -165 0
163 164 165 0
-166 -167 0
-166 -168 0
-167 -168 0
166 167 168 0
-169 -170 0
-169 -171 0
-170 -171 0
169 170 171 0
-172 -173 0
-172 -174 0
-173 -174 0
172 173 174 0
-175 -176 0
-175 -177 0
-176 -177 0
175 176 177 0
-178 -179 0
-178 -180 0
-179 -180 0
178 179 180 0
-181 -182 0
-181 -183 0
-182 -183 0
181 182 183 0
-184 -185 0
-184 -186 0
-185 -186 0
184 185 186 0
-187 -188 0
-187 -189 0
-188 -189 0
187 188 189 0
-190 -191 0
-190 -192 0
-191 -192 0
190 191 192 0
-193 -194 0
-193 -195 0
-194 -195 0
193 194 195 0
-196 -197 0
-196 -198 0
-197 -198 0
196 197 198 0
-199 -200 0
-199 -201 0
-200 -201 0
199 200 201 0
-202 -203 0
-202 -204 0
-203 -204 0
202 203 204 0
-205 -206 0
-205 -207 0
-206 -207 0
205 206 207 0
-208 -209 0
-208 -210 0
-209 -210 0
208 209 210 0
-211 -212 0
-211 -213 0
-212 -213 0
211 212 213 0
-214 -215 0
-214 -216 0
-215 -216 0
214 215 216 0
-217 -218 0
-217 -219 0
-218 -219 0
217 218 219 0
-220 -221 0
-220 -222 0
-221 -222 0
220 221 222 0
-223 -224 0
-223 -225 0
-224 -225 0
223 224 225 0
-226 -227 0
-226 -228 0
-227 -228 0
226 227 228 0
-229 -230 0
-229 -231 0
-230 -231 0
229 230 231 0
-232 -233 0
-232 -234 0
-233 -234 0
232 233 234 0
-235 -236 0
-235 -237 0
-236 -237 0
235 236 237 0
-238 -239 0
-238 -240 0
-239 -240 0
238 239 240 0
-241 -242 0
-241 -243 0
-242 -243 0
241 242 243 0
-244 -245 0
-244 -246 0
-245 -246 0
244 245 246 0
-247 -248 0
-247 -249 0
-248 -249 0
247 248 249 0
-250 -251 0
-250 -252 0
-251 -252 0
250 251 252 0
-253 -254 0
-253 -255 0
-254 -255 0
253 254 255 0
-256 -257 0
-256 -258 0
-257 -258 0
256 257 258 0
-259 -260 0
-259 -261 0
-260 -261 0
259 260 261 0
-262 -263 0
-262 -264 0
-263 -264 0
262 263 264 0
-265 -266 0
-265 -267 0
-266 -267 0
265 266 267 0
-268 -269 0
-268 -270 0
-269 -270 0
268 269 270 0
-271 -272 0
-271 -273 0
-272 -273 0
271 272 273 0
-274 -275 0
-274 -276 0
-275 -276 0
274 275 276 0
-277 -278 0
-277 -279 0
-278 -279 0
277 278 279 0
-280 -281 0
-280 -282 0
-281 -282 0
280 281 282 0
-283 -284 0
-283 -285 0
-284 -285 0
283 284 285 0
-286 -287 0
-286 -288 0
-287 -288 0
286 287 288 0
-289 -290 0
-289 -291 0
-290 -291 0
289 290 291 0
-292 -293 0
-292 -294 0
-293 -294 0
292 293 294 0
-295 -296 0
-295 -297 0
-296 -297 0
295 296 297 0
-298 -299 0
-298 -300 0
-299 -300 0
298 299 300 0
-301 -302 0
-301 -303 0
-302 -303 0
301 302 303 0
-304 -305 0
-304 -306 0
-305 -306 0
304 305 306 0
-307 -308 0
-307 -309 0
-308 -309 0
307 308 309 0
-310 -311 0
-310 -312 0
-311 -312 0
310 311 312 0
-313 -314 0
-313 -315 0
-314 -315 0
313 314 315 0
-316 -317 0
-316 -318 0
-317 -318 0
316 317 318 0
-319 -320 0
-319 -321 0
-320 -321 0
319 320 321 0
-322 -323 0
-322 -324 0
-323 -324 0
322 323 324 0
-325 -326 0
-325 -327 0
-326 -327 0
325 326 327 0
-328 -329 0
-328 -330 0
-329 -330 0
328 329 330 0
-331 -332 0
-331 -333 0
-332 -333 0
331 332 333 0
-334 -335 0
-334 -336 0
-335 -336 0
334 335 336 0
-337 -338 0
-337 -339 0
-338 -339 0
337 338 339 0
-340 -341 0
-340 -342 0
-341 -342 0
340 341 342 0
-343 -344 0
-343 -345 0
-344 -345 0
343 344 345 0
-346 -347 0
-346 -348 0
-347 -348 0
346 347 348 0
-349 -350 0
-349 -351 0
-350 -351 0
349 350 351 0
-352 -353 0
-352 -354 0
-353 -354 0
352 353 354 0
-355 -356 0
-355 -357 0
-356 -357 0
355 356 357 0
-358 -359 0
-358 -360 0
-359 -360 0
358 359 360 0
-361 -362 0
-361 -363 0
-362 -363 0
361 362 363 0
-364 -365 0
-364 -366 0
-365 -366 0
364 365 366 0
-367 -368 0
-367 -369 0
-368 -369 0
367 368 369 0
-370 -371 0
-370 -372 0
-371 -372 0
370 371 372 0
-373 -374 0
-373 -375 0
-374 -375 0
373 374 375 0
-376 -377 0
-376 -378 0
-377 -378 0
376 377 378 0
-379 -380 0
-379 -381 0
-380 -381 0
379 380 381 0
-382 -383 0
-382 -384 0
-383 -384 0
382 383 384 0
-385 -386 0
-385 -387 0
-386 -387 0
385 386 387 0
-388 -389 0
-388 -390 0
-389 -390 0
388 389 390 0
-391 -392 0
-391 -393 0
-392 -393 0
391 392 393 0
-394 -395 0
-394 -396 0
-395 -396 0
394 395 396 0
-397 -398 0
-397 -399 0
-398 -399 0
397 398 399 0
-400 -401 0
-400 -402 0
-401 -402 0
400 401 402 0
-403 -404 0
-403 -405 0
-404 -405 0
403 404 405 0
-406 -407 0
-406 -408 0
-407 -408 0
406 407 408 0
-409 -410 0
-409 -411 0
-410 -411 0
409 410 411 0
-412 -413 0
-412 -414 0
-413 -414 0
412 413 414 0
-415 -416 0
-415 -417 0
-416 -417 0
415 416 417 0
-418 -419 0
-418 -420 0
-419 -420 0
418 419 420 0
-421 -422 0
-421 -423 0
-422 -423 0
421 422 423 0
-424 -425 0
-424 -426 0
-425 -426 0
424 425 426 0
-427 -428 0
-427 -429 0
-428 -429 0
427 428 429 0
-430 -431 0
-430 -432 0
-431 -432 0
430 431 432 0
-433 -434 0
-433 -435 0
-434 -435 0
433 434 435 0
-436 -437 0
-436 -438 0
-437 -438 0
436 437 438 0
-439 -440 0
-439 -441 0
-440 -441 0
439 440 441 0
-442 -443 0
-442 -444 0
-443 -444 0
442 443 444 0
-445 -446 0
-445 -447 0
-446 -447 0
445 446 447 0
-448 -449 0
-448 -450 0
-449 -450 0
448 449 450 0
-451 -452 0
-451 -453 0
-452 -453 0
451 452 453 0
-454 -455 0
-454 -456 0
-455 -456 0
454 455 456 0
-457 -458 0
-457 -459 0
-458 -459 0
457 458 459 0
-460 -461 0
-460 -462 0
-461 -462 0
460 461 462 0
-463 -464 0
-463 -465 0
-464 -465 0
463 464 465 0
-466 -467 0
-466 -468 0
-467 -468 0
466 467 468 0
-469 -470 0
-469 -471 0
-470 -471 0
469 470 471 0
-472 -473 0
-472 -474 0
-473 -474 0
472 473 474 0
-475 -476 0
-475 -477 0
-476 -477 0
475 476 477 0
-478 -479 0
-478 -480 0
-479 -480 0
478 479 480 0
-481 -482 0
-481 -483 0
-482 -483 0
481 482 483 0
-484 -485 0
-484 -486 0
-485 -486 0
484 485 486 0
-487 -488 0
-487 -489 0
-488 -489 0
487 488 489 0
-490 -491 0
-490 -492 0
-491 -492 0
490 491 492 0
-493 -494 0
-493 -495 0
-494 -495 0
493 494 495 0
-496 -497 0
-496 -498 0
-497 -498 0
496 497 498 0
-499 -500 0
-499 -501 0
-500 -501 0
499 500 501 0
-502 -503 0
-502 -504 0
-503 -504 0
502 503 504 0
-505 -506 0
-505 -507 0
-506 -507 0
505 506 507 0
-508 -509 0
-508 -510 0
-509 -510 0
508 509 510 0
-511 -512 0
-511 -513 0
-512 -513 0
511 512 513 0
-514 -515 0
-514 -516 0
-515 -516 0
514 515 516 0
-517 -518 0
-517 -519 0
-518 -519 0
517 518 519 0
-520 -521 0
-520 -522 0
-521 -522 0
520 521 522 0
-523 -524 0
-523 -525 0
-524 -525 0
523 524 525 0
-181 -1 0
-182 -2 0
-183 -3 0
-196 -1 0
-197 -2 0
-198 -3 0
-208 -1 0
-209 -2 0
-210 -3 0
-337 -1 0
-338 -2 0
-339 -3 0
-346 -1 0
-347 -2 0
-348 -3 0
-382 -1 0
-383 -2 0
-384 -3 0
-445 -1 0
-446 -2 0
-447 -3 0
-481 -1 0
-482 -2 0
-483 -3 0
-7 -4 0
-8 -5 0
-9 -6 0
-94 -4 0
-95 -5 0
-96 -6 0
-241 -4 0
-242 -5 0
-243 -6 0
-439 -4 0
-440 -5 0
-441 -6 0
-466 -4 0
-467 -5 0
-468 -6 0
-136 -7 0
-137 -8 0
-138 -9 0
-229 -7 0
-230 -8 0
-231 -9 0
-301 -7 0
-302 -8 0
-303 -9 0
-346 -7 0
-347 -8 0
-348 -9 0
-382 -7 0
-383 -8 0
-384 -9 0
-418 -7 0
-419 -8 0
-420 -9 0
-478 -7 0
-479 -8 0
-480 -9 0
-76 -10 0
-77 -11 0
-78 -12 0
-157 -10 0
-158 -11 0
-159 -12 0
-445 -10 0
-446 -11 0
-447 -12 0
-217 -13 0
-218 -14 0
-219 -15 0
-316 -13 0
-317 -14 0
-318 -15 0
-355 -13 0
-356 -14 0
-357 -15 0
-76 -16 0
-77 -17 0
-78 -18 0
-85 -16 0
-86 -17 0
-87 -18 0
-169 -16 0
-170 -17 0
-171 -18 0
-361 -16 0
-362 -17 0
-363 -18 0
-415 -16 0
-416 -17 0
-417 -18 0
-457 -16 0
-458 -17 0
-459 -18 0
-151 -19 0
-152 -20 0
-153 -21 0
-169 -19 0
-170 -20 0
-171 -21 0
-220 -19 0
-221 -20 0
-222 -21 0
-343 -19 0
-344 -20 0
-345 -21 0
-373 -19 0
-374 -20 0
-375 -21 0
-514 -19 0
-515 -20 0
-516 -21 0
-43 -22 0
-44 -23 0
-45 -24 0
-271 -22 0
-272 -23 0
-273 -24 0
-337 -22 0
-338 -23 0
-339 -24 0
-361 -22 0
-362 -23 0
-363 -24 0
-406 -22 0
-407 -23 0
-408 -24 0
-415 -22 0
-416 -23 0
-417 -24 0
-508 -22 0
-509 -23 0
-510 -24 0
-103 -25 0
-104 -26 0
-105 -27 0
-241 -25 0
-242 -26 0
-243 -27 0
-277 -25 0
-278 -26 0
-279 -27 0
-349 -25 0
-350 -26 0
-351 -27 0
-46 -28 0
-47 -29 0
-48 -30 0
-55 -28 0
-56 -29 0
-57 -30 0
-58 -28 0
-59 -29 0
-60 -30 0
-148 -28 0
-149 -29 0
-150 -30 0
-202 -28 0
-203 -29 0
-204 -30 0
-295 -28 0
-296 -29 0
-297 -30 0
-487 -28 0
-488 -29 0
-489 -30 0
-160 -31 0
-161 -32 0
-162 -33 0
-205 -31 0
-206 -32 0
-207 -33 0
-427 -31 0
-428 -32 0
-429 -33 0
-451 -31 0
-452 -32 0
-453 -33 0
-40 -34 0
-41 -35 0
-42 -36 0
-46 -34 0
-47 -35 0
-48 -36 0
-268 -34 0
-269 -35 0
-270 -36 0
-370 -34 0
-371 -35 0
-372 -36 0
-499 -34 0
-500 -35 0
-501 -36 0
-517 -34 0
-518 -35 0
-519 -36 0
-148 -37 0
-149 -38 0
-150 -39 0
-205 -37 0
-206 -38 0
-207 -39 0
-265 -37 0
-266 -38 0
-267 -39 0
-388 -37 0
-389 -38 0
-390 -39 0
-400 -37 0
-401 -38 0
-402 -39 0
-451 -37 0
-452 -38 0
-453 -39 0
-139 -40 0
-140 -41 0
-141 -42 0
-217 -40 0
-218 -41 0
-219 -42 0
-298 -40 0
-299 -41 0
-300 -42 0
-358 -40 0
-359 -41 0
-360 -42 0
-370 -40 0
-371 -41 0
-372 -42 0
-232 -43 0
-233 -44 0
-234 -45 0
-415 -43 0
-416 -44 0
-417 -45 0
-436 -43 0
-437 -44 0
-438 -45 0
-472 -43 0
-473 -44 0
-474 -45 0
-490 -43 0
-491 -44 0
-492 -45 0
-130 -46 0
-131 -47 0
-132 -48 0
-304 -46 0
-305 -47 0
-306 -48 0
-82 -49 0
-83 -50 0
-84 -51 0
-97 -49 0
-98 -50 0
-99 -51 0
-181 -49 0
-182 -50 0
-183 -51 0
-367 -49 0
-368 -50 0
-369 -51 0
-475 -49 0
-476 -50 0
-477 -51 0
-517 -49 0
-518 -50 0
-519 -51 0
-157 -52 0
-158 -53 0
-159 -54 0
-391 -52 0
-392 -53 0
-393 -54 0
-403 -52 0
-404 -53 0
-405 -54 0
-505 -52 0
-506 -53 0
-507 -54 0
-61 -55 0
-62 -56 0
-63 -57 0
-214 -55 0
-215 -56 0
-216 -57 0
-328 -55 0
-329 -56 0
-330 -57 0
-337 -55 0
-338 -56 0
-339 -57 0
-100 -58 0
-101 -59 0
-102 -60 0
-208 -58 0
-209 -59 0
-210 -60 0
-439 -58 0
-440 -59 0
-441 -60 0
-151 -61 0
-152 -62 0
-153 -63 0
-295 -61 0
-296 -62 0
-297 -63 0
-451 -61 0
-452 -62 0
-453 -63 0
-457 -61 0
-458 -62 0
-459 -63 0
-76 -64 0
-77 -65 0
-78 -66 0
-280 -64 0
-281 -65 0
-282 -66 0
-283 -64 0
-284 -65 0
-285 -66 0
-292 -64 0
-293 -65 0
-294 -66 0
-298 -64 0
-299 -65 0
-300 -66 0
-364 -64 0
-365 -65 0
-366 -66 0
-391 -64 0
-392 -65 0
-393 -66 0
-115 -67 0
-116 -68 0
-117 -69 0
-211 -70 0
-212 -71 0
-213 -72 0
-391 -70 0
-392 -71 0
-393 -72 0
-412 -70 0
-413 -71 0
-414 -72 0
-505 -70 0
-506 -71 0
-507 -72 0
-508 -70 0
-509 -71 0
-510 -72 0
-100 -73 0
-101 -74 0
-102 -75 0
-325 -76 0
-326 -77 0
-327 -78 0
-424 -76 0
-425 -77 0
-426 -78 0
-187 -79 0
-188 -80 0
-189 -81 0
-286 -79 0
-287 -80 0
-288 -81 0
-313 -79 0
-314 -80 0
-315 -81 0
-361 -79 0
-362 -80 0
-363 -81 0
-433 -79 0
-434 -80 0
-435 -81 0
-103 -82 0
-104 -83 0
-105 -84 0
-286 -82 0
-287 -83 0
-288 -84 0
-289 -82 0
-290 -83 0
-291 -84 0
-403 -82 0
-404 -83 0
-405 -84 0
-166 -85 0
-167 -86 0
-168 -87 0
-247 -88 0
-248 -89 0
-249 -90 0
-316 -88 0
-317 -89 0
-318 -90 0
-355 -88 0
-356 -89 0
-357 -90 0
-496 -88 0
-497 -89 0
-498 -90 0
-505 -88 0
-506 -89 0
-507 -90 0
-151 -91 0
-152 -92 0
-153 -93 0
-217 -91 0
-218 -92 0
-219 -93 0
-265 -91 0
-266 -92 0
-267 -93 0
-292 -91 0
-293 -92 0
-294 -93 0
-496 -91 0
-497 -92 0
-498 -93 0
-115 -94 0
-116 -95 0
-117 -96 0
-433 -94 0
-434 -95 0
-435 -96 0
-496 -94 0
-497 -95 0
-498 -96 0
-151 -97 0
-152 -98 0
-153 -99 0
-211 -97 0
-212 -98 0
-213 -99 0
-256 -97 0
-257 -98 0
-258 -99 0
-442 -97 0
-443 -98 0
-444 -99 0
-493 -97 0
-494 -98 0
-495 -99 0
-241 -100 0
-242 -101 0
-243 -102 0
-373 -100 0
-374 -101 0
-375 -102 0
-157 -103 0
-158 -104 0
-159 -105 0
-409 -103 0
-410 -104 0
-411 -105 0
-511 -103 0
-512 -104 0
-513 -105 0
-172 -106 0
-173 -107 0
-174 -108 0
-202 -106 0
-203 -107 0
-204 -108 0
-133 -109 0
-134 -110 0
-135 -111 0
-259 -109 0
-260 -110 0
-261 -111 0
-295 -109 0
-296 -110 0
-297 -111 0
-349 -109 0
-350 -110 0
-351 -111 0
-382 -109 0
-383 -110 0
-384 -111 0
-175 -112 0
-176 -113 0
-177 -114 0
-379 -112 0
-380 -113 0
-381 -114 0
-403 -112 0
-404 -113 0
-405 -114 0
-133 -115 0
-134 -116 0
-135 -117 0
-193 -115 0
-194 -116 0
-195 -117 0
-241 -115 0
-242 -116 0
-243 -117 0
-124 -118 0
-125 -119 0
-126 -120 0
-508 -118 0
-509 -119 0
-510 -120 0
-142 -121 0
-143 -122 0
-144 -123 0
-163 -121 0
-164 -122 0
-165 -123 0
-385 -121 0
-386 -122 0
-387 -123 0
-400 -121 0
-401 -122 0
-402 -123 0
-403 -121 0
-404 -122 0
-405 -123 0
-448 -121 0
-449 -122 0
-450 -123 0
-178 -124 0
-179 -125 0
-180 -126 0
-262 -124 0
-263 -125 0
-264 -126 0
-352 -124 0
-353 -125 0
-354 -126 0
-457 -124 0
-458 -125 0
-459 -126 0
-226 -127 0
-227 -128 0
-228 -129 0
-259 -127 0
-260 -128 0
-261 -129 0
-322 -127 0
-323 -128 0
-324 -129 0
-364 -127 0
-365 -128 0
-366 -129 0
-445 -127 0
-446 -128 0
-447 -129 0
-496 -127 0
-497 -128 0
-498 -129 0
-499 -127 0
-500 -128 0
-501 -129 0
-511 -127 0
-512 -128 0
-513 -129 0
-220 -130 0
-221 -131 0
-222 -132 0
-139 -133 0
-140 -134 0
-141 -135 0
-289 -133 0
-290 -134 0
-291 -135 0
-343 -133 0
-344 -134 0
-345 -135 0
-232 -136 0
-233 -137 0
-234 -138 0
-262 -136 0
-263 -137 0
-264 -138 0
-430 -136 0
-431 -137 0
-432 -138 0
-466 -136 0
-467 -137 0
-468 -138 0
-169 -139 0
-170 -140 0
-171 -141 0
-175 -139 0
-176 -140 0
-177 -141 0
-310 -139 0
-311 -140 0
-312 -141 0
-220 -142 0
-221 -143 0
-222 -144 0
-259 -142 0
-260 -143 0
-261 -144 0
-418 -142 0
-419 -143 0
-420 -144 0
-214 -145 0
-215 -146 0
-216 -147 0
-313 -145 0
-314 -146 0
-315 -147 0
-433 -145 0
-434 -146 0
-435 -147 0
-472 -145 0
-473 -146 0
-474 -147 0
-175 -148 0
-176 -149 0
-177 -150 0
-274 -148 0
-275 -149 0
-276 -150 0
-340 -148 0
-341 -149 0
-342 -150 0
-388 -148 0
-389 -149 0
-390 -150 0
-226 -151 0
-227 -152 0
-228 -153 0
-406 -151 0
-407 -152 0
-408 -153 0
-232 -154 0
-233 -155 0
-234 -156 0
-307 -154 0
-308 -155 0
-309 -156 0
-325 -154 0
-326 -155 0
-327 -156 0
-382 -154 0
-383 -155 0
-384 -156 0
-250 -157 0
-251 -158 0
-252 -159 0
-319 -157 0
-320 -158 0
-321 -159 0
-340 -157 0
-341 -158 0
-342 -159 0
-493 -157 0
-494 -158 0
-495 -159 0
-292 -160 0
-293 -161 0
-294 -162 0
-301 -160 0
-302 -161 0
-303 -162 0
-478 -160 0
-479 -161 0
-480 -162 0
-484 -160 0
-485 -161 0
-486 -162 0
-493 -163 0
-494 -164 0
-495 -165 0
-523 -163 0
-524 -164 0
-525 -165 0
-250 -166 0
-251 -167 0
-252 -168 0
-277 -166 0
-278 -167 0
-279 -168 0
-328 -166 0
-329 -167 0
-330 -168 0
-415 -166 0
-416 -167 0
-417 -168 0
-454 -166 0
-455 -167 0
-456 -168 0
-502 -166 0
-503 -167 0
-504 -168 0
-208 -169 0
-209 -170 0
-210 -171 0
-244 -169 0
-245 -170 0
-246 -171 0
-478 -169 0
-479 -170 0
-480 -171 0
-193 -172 0
-194 -173 0
-195 -174 0
-328 -172 0
-329 -173 0
-330 -174 0
-424 -172 0
-425 -173 0
-426 -174 0
-343 -175 0
-344 -176 0
-345 -177 0
-520 -175 0
-521 -176 0
-522 -177 0
-205 -178 0
-206 -179 0
-207 -180 0
-427 -178 0
-428 -179 0
-429 -180 0
-469 -178 0
-470 -179 0
-471 -180 0
-478 -178 0
-479 -179 0
-480 -180 0
-229 -181 0
-230 -182 0
-231 -183 0
-400 -181 0
-401 -182 0
-402 -183 0
-448 -181 0
-449 -182 0
-450 -183 0
-487 -181 0
-488 -182 0
-489 -183 0
-211 -184 0
-212 -185 0
-213 -186 0
-424 -184 0
-425 -185 0
-426 -186 0
-238 -187 0
-239 -188 0
-240 -189 0
-253 -187 0
-254 -188 0
-255 -189 0
-307 -187 0
-308 -188 0
-309 -189 0
-358 -187 0
-359 -188 0
-360 -189 0
-475 -187 0
-476 -188 0
-477 -189 0
-325 -190 0
-326 -191 0
-327 -192 0
-397 -190 0
-398 -191 0
-399 -192 0
-226 -193 0
-227 -194 0
-228 -195 0
-247 -193 0
-248 -194 0
-249 -195 0
-304 -193 0
-305 -194 0
-306 -195 0
-412 -193 0
-413 -194 0
-414 -195 0
-418 -193 0
-419 -194 0
-420 -195 0
-250 -196 0
-251 -197 0
-252 -198 0
-454 -199 0
-455 -200 0
-456 -201 0
-460 -199 0
-461 -200 0
-462 -201 0
-505 -199 0
-506 -200 0
-507 -201 0
-217 -202 0
-218 -203 0
-219 -204 0
-259 -202 0
-260 -203 0
-261 -204 0
-295 -202 0
-296 -203 0
-297 -204 0
-346 -202 0
-347 -203 0
-348 -204 0
-436 -202 0
-437 -203 0
-438 -204 0
-223 -205 0
-224 -206 0
-225 -207 0
-388 -205 0
-389 -206 0
-390 -207 0
-337 -208 0
-338 -209 0
-339 -210 0
-439 -208 0
-440 -209 0
-441 -210 0
-490 -208 0
-491 -209 0
-492 -210 0
-271 -211 0
-272 -212 0
-273 -213 0
-517 -211 0
-518 -212 0
-519 -213 0
-235 -214 0
-236 -215 0
-237 -216 0
-280 -214 0
-281 -215 0
-282 -216 0
-349 -214 0
-350 -215 0
-351 -216 0
-274 -217 0
-275 -218 0
-276 -219 0
-361 -217 0
-362 -218 0
-363 -219 0
-478 -217 0
-479 -218 0
-480 -219 0
-310 -220 0
-311 -221 0
-312 -222 0
-346 -220 0
-347 -221 0
-348 -222 0
-355 -220 0
-356 -221 0
-357 -222 0
-346 -223 0
-347 -224 0
-348 -225 0
-469 -223 0
-470 -224 0
-471 -225 0
-370 -229 0
-371 -230 0
-372 -231 0
-436 -229 0
-437 -230 0
-438 -231 0
-412 -232 0
-413 -233 0
-414 -234 0
-520 -232 0
-521 -233 0
-522 -234 0
-295 -235 0
-296 -236 0
-297 -237 0
-331 -235 0
-332 -236 0
-333 -237 0
-340 -235 0
-341 -236 0
-342 -237 0
-358 -235 0
-359 -236 0
-360 -237 0
-376 -235 0
-377 -236 0
-378 -237 0
-478 -235 0
-479 -236 0
-480 -237 0
-253 -238 0
-254 -239 0
-255 -240 0
-379 -238 0
-380 -239 0
-381 -240 0
-445 -238 0
-446 -239 0
-447 -240 0
-508 -238 0
-509 -239 0
-510 -240 0
-433 -241 0
-434 -242 0
-435 -243 0
-454 -241 0
-455 -242 0
-456 -243 0
-487 -241 0
-488 -242 0
-489 -243 0
-520 -241 0
-521 -242 0
-522 -243 0
-274 -244 0
-275 -245 0
-276 -246 0
-355 -244 0
-356 -245 0
-357 -246 0
-415 -244 0
-416 -245 0
-417 -246 0
-268 -247 0
-269 -248 0
-270 -249 0
-379 -247 0
-380 -248 0
-381 -249 0
-505 -247 0
-506 -248 0
-507 -249 0
-280 -250 0
-281 -251 0
-282 -252 0
-328 -250 0
-329 -251 0
-330 -252 0
-379 -250 0
-380 -251 0
-381 -252 0
-436 -250 0
-437 -251 0
-438 -252 0
-295 -253 0
-296 -254 0
-297 -255 0
-364 -253 0
-365 -254 0
-366 -255 0
-511 -253 0
-512 -254 0
-513 -255 0
-517 -253 0
-518 -254 0
-519 -255 0
-331 -256 0
-332 -257 0
-333 -258 0
-379 -256 0
-380 -257 0
-381 -258 0
-268 -259 0
-269 -260 0
-270 -261 0
-421 -259 0
-422 -260 0
-423 -261 0
-466 -262 0
-467 -263 0
-468 -264 0
-394 -265 0
-395 -266 0
-396 -267 0
-430 -265 0
-431 -266 0
-432 -267 0
-298 -271 0
-299 -272 0
-300 -273 0
-301 -271 0
-302 -272 0
-303 -273 0
-343 -271 0
-344 -272 0
-345 -273 0
-493 -271 0
-494 -272 0
-495 -273 0
-307 -274 0
-308 -275 0
-309 -276 0
-376 -274 0
-377 -275 0
-378 -276 0
-397 -274 0
-398 -275 0
-399 -276 0
-307 -277 0
-308 -278 0
-309 -279 0
-358 -280 0
-359 -281 0
-360 -282 0
-397 -283 0
-398 -284 0
-399 -285 0
-478 -283 0
-479 -284 0
-480 -285 0
-298 -286 0
-299 -287 0
-300 -288 0
-397 -286 0
-398 -287 0
-399 -288 0
-325 -289 0
-326 -290 0
-327 -291 0
-448 -292 0
-449 -293 0
-450 -294 0
-310 -295 0
-311 -296 0
-312 -297 0
-325 -295 0
-326 -296 0
-327 -297 0
-460 -298 0
-461 -299 0
-462 -300 0
-454 -301 0
-455 -302 0
-456 -303 0
-469 -301 0
-470 -302 0
-471 -303 0
-517 -301 0
-518 -302 0
-519 -303 0
-364 -304 0
-365 -305 0
-366 -306 0
-457 -304 0
-458 -305 0
-459 -306 0
-409 -307 0
-410 -308 0
-411 -309 0
-451 -307 0
-452 -308 0
-453 -309 0
-469 -307 0
-470 -308 0
-471 -309 0
-517 -310 0
-518 -311 0
-519 -312 0
-508 -313 0
-509 -314 0
-510 -315 0
-388 -316 0
-389 -317 0
-390 -318 0
-487 -322 0
-488 -323 0
-489 -324 0
-412 -325 0
-413 -326 0
-414 -327 0
-352 -328 0
-353 -329 0
-354 -330 0
-478 -328 0
-479 -329 0
-480 -330 0
-475 -331 0
-476 -332 0
-477 -333 0
-373 -334 0
-374 -335 0
-375 -336 0
-418 -334 0
-419 -335 0
-420 -336 0
-457 -334 0
-458 -335 0
-459 -336 0
-502 -337 0
-503 -338 0
-504 -339 0
-466 -340 0
-467 -341 0
-468 -342 0
-346 -343 0
-347 -344 0
-348 -345 0
-391 -343 0
-392 -344 0
-393 -345 0
-385 -346 0
-386 -347 0
-387 -348 0
-487 -346 0
-488 -347 0
-489 -348 0
-442 -349 0
-443 -350 0
-444 -351 0
-475 -349 0
-476 -350 0
-477 -351 0
-520 -349 0
-521 -350 0
-522 -351 0
-394 -352 0
-395 -353 0
-396 -354 0
-424 -352 0
-425 -353 0
-426 -354 0
-460 -352 0
-461 -353 0
-462 -354 0
-487 -355 0
-488 -356 0
-489 -357 0
-463 -358 0
-464 -359 0
-465 -360 0
-424 -361 0
-425 -362 0
-426 -363 0
-448 -364 0
-449 -365 0
-450 -366 0
-418 -370 0
-419 -371 0
-420 -372 0
-427 -370 0
-428 -371 0
-429 -372 0
-433 -370 0
-434 -371 0
-435 -372 0
-442 -373 0
-443 -374 0
-444 -375 0
-484 -373 0
-485 -374 0
-486 -375 0
-385 -376 0
-386 -377 0
-387 -378 0
-445 -376 0
-446 -377 0
-447 -378 0
-394 -379 0
-395 -380 0
-396 -381 0
-451 -379 0
-452 -380 0
-453 -381 0
-502 -379 0
-503 -380 0
-504 -381 0
-484 -382 0
-485 -383 0
-486 -384 0
-409 -385 0
-410 -386 0
-411 -387 0
-421 -385 0
-422 -386 0
-423 -387 0
-499 -385 0
-500 -386 0
-501 -387 0
-433 -388 0
-434 -389 0
-435 -390 0
-430 -391 0
-431 -392 0
-432 -393 0
-436 -391 0
-437 -392 0
-438 -393 0
-475 -394 0
-476 -395 0
-477 -396 0
-430 -397 0
-431 -398 0
-432 -399 0
-463 -397 0
-464 -398 0
-465 -399 0
-496 -397 0
-497 -398 0
-498 -399 0
-496 -400 0
-497 -401 0
-498 -402 0
-475 -406 0
-476 -407 0
-477 -408 0
-427 -412 0
-428 -413 0
-429 -414 0
-493 -415 0
-494 -416 0
-495 -417 0
-454 -421 0
-455 -422 0
-456 -423 0
-499 -424 0
-500 -425 0
-501 -426 0
-508 -427 0
-509 -428 0
-510 -429 0
-481 -433 0
-482 -434 0
-483 -435 0
-517 -439 0
-518 -440 0
-519 -441 0
-523 -442 0
-524 -443 0
-525 -444 0
-475 -448 0
-476 -449 0
-477 -450 0
-457 -451 0
-458 -452 0
-459 -453 0
-463 -451 0
-464 -452 0
-465 -453 0
-466 -454 0
-467 -455 0
-468 -456 0
-475 -460 0
-476 -461 0
-477 -462 0
-505 -502 0
-506 -503 0
-507 -504 0
